; Options: -in -smt2
(set-option :produce-unsat-assumptions true)

(declare-fun start!2337 () Bool)

(assert start!2337)

(declare-fun b!12371 () Bool)

(declare-fun res!9686 () Bool)

(declare-fun e!7032 () Bool)

(assert (=> b!12371 (=> (not res!9686) (not e!7032))))

(declare-fun i!271 () (_ BitVec 32))

(declare-fun jz!59 () (_ BitVec 32))

(assert (=> b!12371 (= res!9686 (bvslt i!271 jz!59))))

(declare-fun b!12372 () Bool)

(declare-fun res!9687 () Bool)

(declare-fun e!7029 () Bool)

(assert (=> b!12372 (=> (not res!9687) (not e!7029))))

(declare-datatypes ((array!914 0))(
  ( (array!915 (arr!401 (Array (_ BitVec 32) (_ FloatingPoint 11 53))) (size!401 (_ BitVec 32))) )
))
(declare-fun q!93 () array!914)

(declare-fun qInv!0 (array!914) Bool)

(assert (=> b!12372 (= res!9687 (qInv!0 q!93))))

(declare-fun lt!6488 () (_ BitVec 32))

(declare-datatypes ((Unit!1382 0))(
  ( (Unit!1383) )
))
(declare-datatypes ((array!916 0))(
  ( (array!917 (arr!402 (Array (_ BitVec 32) (_ BitVec 32))) (size!402 (_ BitVec 32))) )
))
(declare-datatypes ((tuple4!284 0))(
  ( (tuple4!285 (_1!321 Unit!1382) (_2!321 (_ BitVec 32)) (_3!258 array!916) (_4!142 (_ BitVec 32))) )
))
(declare-fun e!7037 () tuple4!284)

(declare-fun lt!6490 () (_ BitVec 32))

(declare-fun b!12373 () Bool)

(declare-datatypes ((tuple4!286 0))(
  ( (tuple4!287 (_1!322 Unit!1382) (_2!322 array!916) (_3!259 (_ BitVec 32)) (_4!143 (_ FloatingPoint 11 53))) )
))
(declare-fun lt!6487 () tuple4!286)

(declare-fun computeModuloWhile!3 ((_ BitVec 32) array!914 (_ BitVec 32) array!916 (_ BitVec 32)) tuple4!284)

(assert (=> b!12373 (= e!7037 (computeModuloWhile!3 jz!59 q!93 lt!6490 (_2!322 lt!6487) lt!6488))))

(declare-fun b!12374 () Bool)

(declare-fun res!9679 () Bool)

(assert (=> b!12374 (=> (not res!9679) (not e!7032))))

(declare-fun iq!194 () array!916)

(declare-fun iqInv!0 (array!916) Bool)

(assert (=> b!12374 (= res!9679 (iqInv!0 iq!194))))

(declare-fun lt!6486 () (_ BitVec 32))

(declare-fun b!12375 () Bool)

(declare-fun lt!6494 () tuple4!284)

(declare-datatypes ((tuple3!232 0))(
  ( (tuple3!233 (_1!323 Unit!1382) (_2!323 array!916) (_3!260 (_ BitVec 32))) )
))
(declare-fun e!7036 () tuple3!232)

(declare-fun Unit!1384 () Unit!1382)

(assert (=> b!12375 (= e!7036 (tuple3!233 Unit!1384 (array!917 (store (arr!402 (_3!258 lt!6494)) (bvsub jz!59 #b00000000000000000000000000000001) (ite (= (_4!142 lt!6494) #b00000000000000000000000000000000) (bvsub #b00000001000000000000000000000000 lt!6486) (bvsub #b00000000111111111111111111111111 lt!6486))) (size!402 (_3!258 lt!6494))) (_4!142 lt!6494)))))

(assert (=> b!12375 (= lt!6490 #b00000000000000000000000000000000)))

(declare-fun c!1559 () Bool)

(assert (=> b!12375 (= c!1559 (bvslt lt!6490 (bvsub jz!59 #b00000000000000000000000000000001)))))

(assert (=> b!12375 (= lt!6494 e!7037)))

(assert (=> b!12375 (= lt!6486 (select (arr!402 (_3!258 lt!6494)) (bvsub jz!59 #b00000000000000000000000000000001)))))

(declare-fun b!12376 () Bool)

(declare-fun Unit!1385 () Unit!1382)

(assert (=> b!12376 (= e!7037 (tuple4!285 Unit!1385 lt!6490 (_2!322 lt!6487) lt!6488))))

(declare-fun res!9683 () Bool)

(assert (=> start!2337 (=> (not res!9683) (not e!7029))))

(assert (=> start!2337 (= res!9683 (and (bvsle #b00000000000000000000000000000010 jz!59) (bvslt jz!59 #b00000000000000000000000000010011)))))

(assert (=> start!2337 e!7029))

(assert (=> start!2337 true))

(declare-fun array_inv!350 (array!916) Bool)

(assert (=> start!2337 (array_inv!350 iq!194)))

(declare-fun qq!48 () array!914)

(declare-fun array_inv!351 (array!914) Bool)

(assert (=> start!2337 (array_inv!351 qq!48)))

(assert (=> start!2337 (array_inv!351 q!93)))

(declare-fun b!12377 () Bool)

(declare-fun e!7033 () Bool)

(assert (=> b!12377 (= e!7029 e!7033)))

(declare-fun res!9684 () Bool)

(assert (=> b!12377 (=> (not res!9684) (not e!7033))))

(declare-fun lt!6493 () (_ FloatingPoint 11 53))

(assert (=> b!12377 (= res!9684 (and (fp.leq (fp #b0 #b00000000000 #b0000000000000000000000000000000000000000000000000000) lt!6493) (fp.lt lt!6493 (fp #b0 #b10000000010 #b0000000000000000000000000000000000000000000000000000))))))

(assert (=> b!12377 (= lt!6493 (fp.sub roundNearestTiesToEven (_4!143 lt!6487) (fp.mul roundNearestTiesToEven (fp #b0 #b10000000010 #b0000000000000000000000000000000000000000000000000000) ((_ to_fp 11 53) roundNearestTiesToEven (ite (fp.isNaN (fp.mul roundNearestTiesToEven (_4!143 lt!6487) (fp #b0 #b01111111100 #b0000000000000000000000000000000000000000000000000000))) #b0000000000000000000000000000000000000000000000000000000000000000 (ite (fp.gt (fp.mul roundNearestTiesToEven (_4!143 lt!6487) (fp #b0 #b01111111100 #b0000000000000000000000000000000000000000000000000000)) ((_ to_fp 11 53) roundTowardZero #b0111111111111111111111111111111111111111111111111111111111111111)) #b0111111111111111111111111111111111111111111111111111111111111111 (ite (fp.lt (fp.mul roundNearestTiesToEven (_4!143 lt!6487) (fp #b0 #b01111111100 #b0000000000000000000000000000000000000000000000000000)) ((_ to_fp 11 53) roundTowardZero #b1000000000000000000000000000000000000000000000000000000000000000)) #b1000000000000000000000000000000000000000000000000000000000000000 ((_ fp.to_sbv 64) roundTowardZero (fp.mul roundNearestTiesToEven (_4!143 lt!6487) (fp #b0 #b01111111100 #b0000000000000000000000000000000000000000000000000000))))))))))))

(declare-fun e!7035 () tuple4!286)

(assert (=> b!12377 (= lt!6487 e!7035)))

(declare-fun c!1557 () Bool)

(assert (=> b!12377 (= c!1557 (bvsgt jz!59 #b00000000000000000000000000000000))))

(declare-fun lt!6485 () (_ FloatingPoint 11 53))

(assert (=> b!12377 (= lt!6485 (select (arr!401 q!93) jz!59))))

(declare-fun lt!6495 () array!916)

(assert (=> b!12377 (= lt!6495 (array!917 ((as const (Array (_ BitVec 32) (_ BitVec 32))) #b00000000000000000000000000000000) #b00000000000000000000000000010100))))

(declare-fun b!12378 () Bool)

(declare-fun res!9680 () Bool)

(assert (=> b!12378 (=> (not res!9680) (not e!7032))))

(declare-fun QInt!0 ((_ BitVec 32)) Bool)

(assert (=> b!12378 (= res!9680 (QInt!0 (select (arr!402 iq!194) (bvsub (bvsub jz!59 #b00000000000000000000000000000001) i!271))))))

(declare-fun b!12379 () Bool)

(declare-fun Unit!1386 () Unit!1382)

(assert (=> b!12379 (= e!7036 (tuple3!233 Unit!1386 (_2!322 lt!6487) lt!6488))))

(declare-fun b!12380 () Bool)

(declare-fun res!9682 () Bool)

(assert (=> b!12380 (=> (not res!9682) (not e!7032))))

(declare-fun qqInv!0 (array!914) Bool)

(assert (=> b!12380 (= res!9682 (qqInv!0 qq!48))))

(declare-fun b!12381 () Bool)

(declare-fun Unit!1387 () Unit!1382)

(assert (=> b!12381 (= e!7035 (tuple4!287 Unit!1387 lt!6495 jz!59 lt!6485))))

(declare-fun b!12382 () Bool)

(declare-fun lt!6492 () (_ BitVec 32))

(assert (=> b!12382 (= e!7032 (or (bvslt lt!6492 #b00000000000000000000000000000000) (bvsge lt!6492 (size!402 iq!194))))))

(assert (=> b!12382 (= lt!6492 (bvsub (bvsub jz!59 #b00000000000000000000000000000001) i!271))))

(declare-fun b!12383 () Bool)

(assert (=> b!12383 (= e!7033 e!7032)))

(declare-fun res!9685 () Bool)

(assert (=> b!12383 (=> (not res!9685) (not e!7032))))

(declare-fun lt!6491 () Bool)

(declare-fun lt!6489 () tuple3!232)

(assert (=> b!12383 (= res!9685 (and (bvsle #b00000000000000000000000000000000 (select (arr!402 (_2!323 lt!6489)) (bvsub jz!59 #b00000000000000000000000000000001))) (bvsle (select (arr!402 (_2!323 lt!6489)) (bvsub jz!59 #b00000000000000000000000000000001)) #b00000000100000000000000000000000) (or (not lt!6491) (not (= (_3!260 lt!6489) #b00000000000000000000000000000000)) (not (= (select (arr!402 (_2!323 lt!6489)) (bvsub jz!59 #b00000000000000000000000000000001)) #b00000000100000000000000000000000))) (bvsle (select (arr!402 (_2!323 lt!6489)) (bvsub jz!59 #b00000000000000000000000000000001)) #b00000000011111111111111111111111) (bvsle #b00000000000000000000000000000000 i!271) (bvsle i!271 jz!59)))))

(assert (=> b!12383 (= lt!6489 e!7036)))

(declare-fun c!1558 () Bool)

(assert (=> b!12383 (= c!1558 lt!6491)))

(assert (=> b!12383 (= lt!6488 #b00000000000000000000000000000000)))

(assert (=> b!12383 (= lt!6491 (bvsge (select (arr!402 (_2!322 lt!6487)) (bvsub jz!59 #b00000000000000000000000000000001)) #b00000000100000000000000000000000))))

(declare-fun b!12384 () Bool)

(declare-fun res!9681 () Bool)

(assert (=> b!12384 (=> (not res!9681) (not e!7032))))

(assert (=> b!12384 (= res!9681 (and (bvsle (select (arr!402 iq!194) (bvsub jz!59 #b00000000000000000000000000000001)) #b00000000011111111111111111111111) (= (size!401 qq!48) #b00000000000000000000000000010100)))))

(declare-fun b!12385 () Bool)

(declare-fun computeModuloWhile!0 ((_ BitVec 32) array!914 array!916 (_ BitVec 32) (_ FloatingPoint 11 53)) tuple4!286)

(assert (=> b!12385 (= e!7035 (computeModuloWhile!0 jz!59 q!93 lt!6495 jz!59 lt!6485))))

(assert (= (and start!2337 res!9683) b!12372))

(assert (= (and b!12372 res!9687) b!12377))

(assert (= (and b!12377 c!1557) b!12385))

(assert (= (and b!12377 (not c!1557)) b!12381))

(assert (= (and b!12377 res!9684) b!12383))

(assert (= (and b!12383 c!1558) b!12375))

(assert (= (and b!12383 (not c!1558)) b!12379))

(assert (= (and b!12375 c!1559) b!12373))

(assert (= (and b!12375 (not c!1559)) b!12376))

(assert (= (and b!12383 res!9685) b!12374))

(assert (= (and b!12374 res!9679) b!12384))

(assert (= (and b!12384 res!9681) b!12380))

(assert (= (and b!12380 res!9682) b!12371))

(assert (= (and b!12371 res!9686) b!12378))

(assert (= (and b!12378 res!9680) b!12382))

(declare-fun m!18343 () Bool)

(assert (=> b!12374 m!18343))

(declare-fun m!18345 () Bool)

(assert (=> b!12372 m!18345))

(declare-fun m!18347 () Bool)

(assert (=> b!12373 m!18347))

(declare-fun m!18349 () Bool)

(assert (=> b!12385 m!18349))

(declare-fun m!18351 () Bool)

(assert (=> start!2337 m!18351))

(declare-fun m!18353 () Bool)

(assert (=> start!2337 m!18353))

(declare-fun m!18355 () Bool)

(assert (=> start!2337 m!18355))

(declare-fun m!18357 () Bool)

(assert (=> b!12380 m!18357))

(declare-fun m!18359 () Bool)

(assert (=> b!12383 m!18359))

(declare-fun m!18361 () Bool)

(assert (=> b!12383 m!18361))

(declare-fun m!18363 () Bool)

(assert (=> b!12375 m!18363))

(declare-fun m!18365 () Bool)

(assert (=> b!12375 m!18365))

(declare-fun m!18367 () Bool)

(assert (=> b!12384 m!18367))

(declare-fun m!18369 () Bool)

(assert (=> b!12378 m!18369))

(assert (=> b!12378 m!18369))

(declare-fun m!18371 () Bool)

(assert (=> b!12378 m!18371))

(declare-fun m!18373 () Bool)

(assert (=> b!12377 m!18373))

(check-sat (not b!12385) (not start!2337) (not b!12374) (not b!12372) (not b!12378) (not b!12380) (not b!12373))
(check-sat)
(get-model)

(declare-fun d!5133 () Bool)

(assert (=> d!5133 (= (qqInv!0 qq!48) (and (= (size!401 qq!48) #b00000000000000000000000000010100) (fp.leq (fp #b0 #b00000000000 #b0000000000000000000000000000000000000000000000000000) (select (arr!401 qq!48) #b00000000000000000000000000000000)) (fp.leq (select (arr!401 qq!48) #b00000000000000000000000000000000) (fp #b0 #b01111111101 #b1111111111111111111111000000000000000000000000000000)) (fp.leq (fp #b0 #b00000000000 #b0000000000000000000000000000000000000000000000000000) (select (arr!401 qq!48) #b00000000000000000000000000000001)) (fp.leq (select (arr!401 qq!48) #b00000000000000000000000000000001) (fp #b0 #b01111100110 #b1111111111111111111111100000000000000000000000000000)) (fp.leq (fp #b0 #b00000000000 #b0000000000000000000000000000000000000000000000000000) (select (arr!401 qq!48) #b00000000000000000000000000000010)) (fp.leq (select (arr!401 qq!48) #b00000000000000000000000000000010) (fp #b0 #b01111001110 #b1111111111111111111111100000000000000000000000000000)) (fp.leq (fp #b0 #b00000000000 #b0000000000000000000000000000000000000000000000000000) (select (arr!401 qq!48) #b00000000000000000000000000000011)) (fp.leq (select (arr!401 qq!48) #b00000000000000000000000000000011) (fp #b0 #b01110110110 #b1111111111111111111111100000000000000000000000000000)) (fp.leq (fp #b0 #b00000000000 #b0000000000000000000000000000000000000000000000000000) (select (arr!401 qq!48) #b00000000000000000000000000000100)) (fp.leq (select (arr!401 qq!48) #b00000000000000000000000000000100) (fp #b0 #b01110011110 #b1111111111111111111111100000000000000000000000000000)) (fp.leq (fp #b0 #b00000000000 #b0000000000000000000000000000000000000000000000000000) (select (arr!401 qq!48) #b00000000000000000000000000000101)) (fp.leq (select (arr!401 qq!48) #b00000000000000000000000000000101) (fp #b0 #b01110000110 #b1111111111111111111111100000000000000000000000000000)) (fp.leq (fp #b0 #b00000000000 #b0000000000000000000000000000000000000000000000000000) (select (arr!401 qq!48) #b00000000000000000000000000000110)) (fp.leq (select (arr!401 qq!48) #b00000000000000000000000000000110) (fp #b0 #b01101101110 #b1111111111111111111111100000000000000000000000000000)) (fp.leq (fp #b0 #b00000000000 #b0000000000000000000000000000000000000000000000000000) (select (arr!401 qq!48) #b00000000000000000000000000000111)) (fp.leq (select (arr!401 qq!48) #b00000000000000000000000000000111) (fp #b0 #b01101010110 #b1111111111111111111111100000000000000000000000000000)) (fp.leq (fp #b0 #b00000000000 #b0000000000000000000000000000000000000000000000000000) (select (arr!401 qq!48) #b00000000000000000000000000001000)) (fp.leq (select (arr!401 qq!48) #b00000000000000000000000000001000) (fp #b0 #b01100111110 #b1111111111111111111111100000000000000000000000000000)) (fp.leq (fp #b0 #b00000000000 #b0000000000000000000000000000000000000000000000000000) (select (arr!401 qq!48) #b00000000000000000000000000001001)) (fp.leq (select (arr!401 qq!48) #b00000000000000000000000000001001) (fp #b0 #b01100100110 #b1111111111111111111111100000000000000000000000000000)) (fp.leq (fp #b0 #b00000000000 #b0000000000000000000000000000000000000000000000000000) (select (arr!401 qq!48) #b00000000000000000000000000001010)) (fp.leq (select (arr!401 qq!48) #b00000000000000000000000000001010) (fp #b0 #b01100001110 #b1111111111111111111111100000000000000000000000000000)) (fp.leq (fp #b0 #b00000000000 #b0000000000000000000000000000000000000000000000000000) (select (arr!401 qq!48) #b00000000000000000000000000001011)) (fp.leq (select (arr!401 qq!48) #b00000000000000000000000000001011) (fp #b0 #b01011110110 #b1111111111111111111111100000000000000000000000000000)) (fp.leq (fp #b0 #b00000000000 #b0000000000000000000000000000000000000000000000000000) (select (arr!401 qq!48) #b00000000000000000000000000001100)) (fp.leq (select (arr!401 qq!48) #b00000000000000000000000000001100) (fp #b0 #b01011011110 #b1111111111111111111111100000000000000000000000000000)) (fp.leq (fp #b0 #b00000000000 #b0000000000000000000000000000000000000000000000000000) (select (arr!401 qq!48) #b00000000000000000000000000001101)) (fp.leq (select (arr!401 qq!48) #b00000000000000000000000000001101) (fp #b0 #b01011000110 #b1111111111111111111111100000000000000000000000000000)) (fp.leq (fp #b0 #b00000000000 #b0000000000000000000000000000000000000000000000000000) (select (arr!401 qq!48) #b00000000000000000000000000001110)) (fp.leq (select (arr!401 qq!48) #b00000000000000000000000000001110) (fp #b0 #b01010101110 #b1111111111111111111111100000000000000000000000000000)) (fp.leq (fp #b0 #b00000000000 #b0000000000000000000000000000000000000000000000000000) (select (arr!401 qq!48) #b00000000000000000000000000001111)) (fp.leq (select (arr!401 qq!48) #b00000000000000000000000000001111) (fp #b0 #b01010010110 #b1111111111111111111111100000000000000000000000000000)) (fp.leq (fp #b0 #b00000000000 #b0000000000000000000000000000000000000000000000000000) (select (arr!401 qq!48) #b00000000000000000000000000010000)) (fp.leq (select (arr!401 qq!48) #b00000000000000000000000000010000) (fp #b0 #b01001111110 #b1111111111111111111111100000000000000000000000000000)) (fp.leq (fp #b0 #b00000000000 #b0000000000000000000000000000000000000000000000000000) (select (arr!401 qq!48) #b00000000000000000000000000010001)) (fp.leq (select (arr!401 qq!48) #b00000000000000000000000000010001) (fp #b0 #b01001100110 #b1111111111111111111111100000000000000000000000000000)) (fp.leq (fp #b0 #b00000000000 #b0000000000000000000000000000000000000000000000000000) (select (arr!401 qq!48) #b00000000000000000000000000010010)) (fp.leq (select (arr!401 qq!48) #b00000000000000000000000000010010) (fp #b0 #b01001001110 #b1111111111111111111111100000000000000000000000000000)) (fp.leq (fp #b0 #b00000000000 #b0000000000000000000000000000000000000000000000000000) (select (arr!401 qq!48) #b00000000000000000000000000010011)) (fp.leq (select (arr!401 qq!48) #b00000000000000000000000000010011) (fp #b0 #b01000110110 #b1111111111111111111111100000000000000000000000000000))))))

(declare-fun bs!2291 () Bool)

(assert (= bs!2291 d!5133))

(declare-fun m!18375 () Bool)

(assert (=> bs!2291 m!18375))

(declare-fun m!18377 () Bool)

(assert (=> bs!2291 m!18377))

(declare-fun m!18379 () Bool)

(assert (=> bs!2291 m!18379))

(declare-fun m!18381 () Bool)

(assert (=> bs!2291 m!18381))

(declare-fun m!18383 () Bool)

(assert (=> bs!2291 m!18383))

(declare-fun m!18385 () Bool)

(assert (=> bs!2291 m!18385))

(declare-fun m!18387 () Bool)

(assert (=> bs!2291 m!18387))

(declare-fun m!18389 () Bool)

(assert (=> bs!2291 m!18389))

(declare-fun m!18391 () Bool)

(assert (=> bs!2291 m!18391))

(declare-fun m!18393 () Bool)

(assert (=> bs!2291 m!18393))

(declare-fun m!18395 () Bool)

(assert (=> bs!2291 m!18395))

(declare-fun m!18397 () Bool)

(assert (=> bs!2291 m!18397))

(declare-fun m!18399 () Bool)

(assert (=> bs!2291 m!18399))

(declare-fun m!18401 () Bool)

(assert (=> bs!2291 m!18401))

(declare-fun m!18403 () Bool)

(assert (=> bs!2291 m!18403))

(declare-fun m!18405 () Bool)

(assert (=> bs!2291 m!18405))

(declare-fun m!18407 () Bool)

(assert (=> bs!2291 m!18407))

(declare-fun m!18409 () Bool)

(assert (=> bs!2291 m!18409))

(declare-fun m!18411 () Bool)

(assert (=> bs!2291 m!18411))

(declare-fun m!18413 () Bool)

(assert (=> bs!2291 m!18413))

(assert (=> b!12380 d!5133))

(declare-fun b!12399 () Bool)

(declare-fun res!9696 () Bool)

(declare-fun e!7044 () Bool)

(assert (=> b!12399 (=> (not res!9696) (not e!7044))))

(declare-fun lt!6510 () tuple4!286)

(assert (=> b!12399 (= res!9696 (iqInv!0 (_2!322 lt!6510)))))

(declare-fun b!12400 () Bool)

(declare-fun e!7045 () Bool)

(assert (=> b!12400 (= e!7045 (bvsgt jz!59 #b00000000000000000000000000000000))))

(declare-fun b!12401 () Bool)

(assert (=> b!12401 (= e!7044 (bvsle (_3!259 lt!6510) #b00000000000000000000000000000000))))

(declare-fun b!12402 () Bool)

(declare-fun res!9697 () Bool)

(assert (=> b!12402 (=> (not res!9697) (not e!7045))))

(assert (=> b!12402 (= res!9697 (iqInv!0 lt!6495))))

(declare-fun lt!6507 () (_ BitVec 32))

(declare-fun lt!6509 () (_ FloatingPoint 11 53))

(declare-fun b!12403 () Bool)

(declare-fun lt!6508 () array!916)

(declare-fun e!7046 () tuple4!286)

(declare-fun Unit!1388 () Unit!1382)

(assert (=> b!12403 (= e!7046 (tuple4!287 Unit!1388 lt!6508 lt!6507 lt!6509))))

(declare-fun b!12398 () Bool)

(assert (=> b!12398 (= e!7046 (computeModuloWhile!0 jz!59 q!93 lt!6508 lt!6507 lt!6509))))

(declare-fun d!5135 () Bool)

(assert (=> d!5135 e!7044))

(declare-fun res!9698 () Bool)

(assert (=> d!5135 (=> (not res!9698) (not e!7044))))

(assert (=> d!5135 (= res!9698 (and true true (bvsle #b00000000000000000000000000000000 (_3!259 lt!6510)) (bvsle (_3!259 lt!6510) jz!59) (fp.leq (fp #b0 #b00000000000 #b0000000000000000000000000000000000000000000000000000) (_4!143 lt!6510)) (fp.leq (_4!143 lt!6510) (fp #b0 #b10000110001 #b0100000000000000000000010011111111111111111111111100))))))

(assert (=> d!5135 (= lt!6510 e!7046)))

(declare-fun c!1562 () Bool)

(assert (=> d!5135 (= c!1562 (bvsgt lt!6507 #b00000000000000000000000000000000))))

(assert (=> d!5135 (= lt!6507 (bvsub jz!59 #b00000000000000000000000000000001))))

(declare-fun lt!6506 () (_ FloatingPoint 11 53))

(assert (=> d!5135 (= lt!6509 (fp.add roundNearestTiesToEven (select (arr!401 q!93) (bvsub jz!59 #b00000000000000000000000000000001)) lt!6506))))

(assert (=> d!5135 (= lt!6508 (array!917 (store (arr!402 lt!6495) (bvsub jz!59 jz!59) (ite (fp.isNaN (fp.sub roundNearestTiesToEven lt!6485 (fp.mul roundNearestTiesToEven (fp #b0 #b10000010111 #b0000000000000000000000000000000000000000000000000000) lt!6506))) #b00000000000000000000000000000000 (ite (fp.gt (fp.sub roundNearestTiesToEven lt!6485 (fp.mul roundNearestTiesToEven (fp #b0 #b10000010111 #b0000000000000000000000000000000000000000000000000000) lt!6506)) ((_ to_fp 11 53) roundTowardZero #b01111111111111111111111111111111)) #b01111111111111111111111111111111 (ite (fp.lt (fp.sub roundNearestTiesToEven lt!6485 (fp.mul roundNearestTiesToEven (fp #b0 #b10000010111 #b0000000000000000000000000000000000000000000000000000) lt!6506)) ((_ to_fp 11 53) roundTowardZero #b10000000000000000000000000000000)) #b10000000000000000000000000000000 ((_ fp.to_sbv 32) roundTowardZero (fp.sub roundNearestTiesToEven lt!6485 (fp.mul roundNearestTiesToEven (fp #b0 #b10000010111 #b0000000000000000000000000000000000000000000000000000) lt!6506))))))) (size!402 lt!6495)))))

(assert (=> d!5135 (= lt!6506 ((_ to_fp 11 53) roundNearestTiesToEven (ite (fp.isNaN (fp.mul roundNearestTiesToEven (fp #b0 #b01111100111 #b0000000000000000000000000000000000000000000000000000) lt!6485)) #b00000000000000000000000000000000 (ite (fp.gt (fp.mul roundNearestTiesToEven (fp #b0 #b01111100111 #b0000000000000000000000000000000000000000000000000000) lt!6485) ((_ to_fp 11 53) roundTowardZero #b01111111111111111111111111111111)) #b01111111111111111111111111111111 (ite (fp.lt (fp.mul roundNearestTiesToEven (fp #b0 #b01111100111 #b0000000000000000000000000000000000000000000000000000) lt!6485) ((_ to_fp 11 53) roundTowardZero #b10000000000000000000000000000000)) #b10000000000000000000000000000000 ((_ fp.to_sbv 32) roundTowardZero (fp.mul roundNearestTiesToEven (fp #b0 #b01111100111 #b0000000000000000000000000000000000000000000000000000) lt!6485)))))))))

(assert (=> d!5135 e!7045))

(declare-fun res!9699 () Bool)

(assert (=> d!5135 (=> (not res!9699) (not e!7045))))

(assert (=> d!5135 (= res!9699 (and (bvsle #b00000000000000000000000000000000 jz!59) (bvsle jz!59 jz!59) (fp.leq (fp #b0 #b00000000000 #b0000000000000000000000000000000000000000000000000000) lt!6485) (fp.leq lt!6485 (fp #b0 #b10000110001 #b0100000000000000000000010011111111111111111111111100))))))

(assert (=> d!5135 (= (computeModuloWhile!0 jz!59 q!93 lt!6495 jz!59 lt!6485) lt!6510)))

(assert (= (and d!5135 res!9699) b!12402))

(assert (= (and b!12402 res!9697) b!12400))

(assert (= (and d!5135 c!1562) b!12398))

(assert (= (and d!5135 (not c!1562)) b!12403))

(assert (= (and d!5135 res!9698) b!12399))

(assert (= (and b!12399 res!9696) b!12401))

(declare-fun m!18415 () Bool)

(assert (=> b!12399 m!18415))

(declare-fun m!18417 () Bool)

(assert (=> b!12402 m!18417))

(declare-fun m!18419 () Bool)

(assert (=> b!12398 m!18419))

(declare-fun m!18421 () Bool)

(assert (=> d!5135 m!18421))

(declare-fun m!18423 () Bool)

(assert (=> d!5135 m!18423))

(assert (=> b!12385 d!5135))

(declare-fun d!5137 () Bool)

(declare-fun res!9702 () Bool)

(declare-fun e!7049 () Bool)

(assert (=> d!5137 (=> (not res!9702) (not e!7049))))

(assert (=> d!5137 (= res!9702 (= (size!402 iq!194) #b00000000000000000000000000010100))))

(assert (=> d!5137 (= (iqInv!0 iq!194) e!7049)))

(declare-fun b!12406 () Bool)

(declare-fun lambda!541 () Int)

(declare-fun all20Int!0 (array!916 Int) Bool)

(assert (=> b!12406 (= e!7049 (all20Int!0 iq!194 lambda!541))))

(assert (= (and d!5137 res!9702) b!12406))

(declare-fun m!18425 () Bool)

(assert (=> b!12406 m!18425))

(assert (=> b!12374 d!5137))

(declare-fun d!5139 () Bool)

(declare-fun res!9705 () Bool)

(declare-fun e!7052 () Bool)

(assert (=> d!5139 (=> (not res!9705) (not e!7052))))

(assert (=> d!5139 (= res!9705 (= (size!401 q!93) #b00000000000000000000000000010100))))

(assert (=> d!5139 (= (qInv!0 q!93) e!7052)))

(declare-fun b!12409 () Bool)

(declare-fun lambda!544 () Int)

(declare-fun all20!0 (array!914 Int) Bool)

(assert (=> b!12409 (= e!7052 (all20!0 q!93 lambda!544))))

(assert (= (and d!5139 res!9705) b!12409))

(declare-fun m!18427 () Bool)

(assert (=> b!12409 m!18427))

(assert (=> b!12372 d!5139))

(declare-fun d!5141 () Bool)

(assert (=> d!5141 (= (array_inv!350 iq!194) (bvsge (size!402 iq!194) #b00000000000000000000000000000000))))

(assert (=> start!2337 d!5141))

(declare-fun d!5143 () Bool)

(assert (=> d!5143 (= (array_inv!351 qq!48) (bvsge (size!401 qq!48) #b00000000000000000000000000000000))))

(assert (=> start!2337 d!5143))

(declare-fun d!5145 () Bool)

(assert (=> d!5145 (= (array_inv!351 q!93) (bvsge (size!401 q!93) #b00000000000000000000000000000000))))

(assert (=> start!2337 d!5145))

(declare-fun b!12431 () Bool)

(declare-fun res!9718 () Bool)

(declare-fun e!7062 () Bool)

(assert (=> b!12431 (=> (not res!9718) (not e!7062))))

(declare-fun lt!6530 () tuple4!284)

(assert (=> b!12431 (= res!9718 (or (= (_4!142 lt!6530) #b00000000000000000000000000000000) (= (_4!142 lt!6530) #b00000000000000000000000000000001)))))

(declare-fun b!12432 () Bool)

(declare-fun lt!6529 () (_ BitVec 32))

(declare-fun lt!6535 () (_ BitVec 32))

(declare-fun lt!6533 () array!916)

(declare-fun e!7061 () tuple4!284)

(assert (=> b!12432 (= e!7061 (computeModuloWhile!3 jz!59 q!93 lt!6535 lt!6533 lt!6529))))

(declare-fun b!12433 () Bool)

(assert (=> b!12433 (= e!7062 (bvsge (_2!321 lt!6530) (bvsub jz!59 #b00000000000000000000000000000001)))))

(assert (=> b!12433 (or (= (bvand jz!59 #b10000000000000000000000000000000) #b00000000000000000000000000000000) (= (bvand jz!59 #b10000000000000000000000000000000) (bvand (bvsub jz!59 #b00000000000000000000000000000001) #b10000000000000000000000000000000)))))

(declare-fun lt!6536 () (_ FloatingPoint 11 53))

(declare-fun e!7063 () tuple4!286)

(declare-fun lt!6532 () array!916)

(declare-fun b!12434 () Bool)

(assert (=> b!12434 (= e!7063 (computeModuloWhile!0 jz!59 q!93 lt!6532 jz!59 lt!6536))))

(declare-fun b!12435 () Bool)

(declare-fun Unit!1389 () Unit!1382)

(assert (=> b!12435 (= e!7063 (tuple4!287 Unit!1389 lt!6532 jz!59 lt!6536))))

(declare-fun b!12436 () Bool)

(declare-fun Unit!1390 () Unit!1382)

(assert (=> b!12436 (= e!7061 (tuple4!285 Unit!1390 lt!6535 lt!6533 lt!6529))))

(declare-fun b!12437 () Bool)

(declare-fun res!9720 () Bool)

(declare-fun e!7064 () Bool)

(assert (=> b!12437 (=> (not res!9720) (not e!7064))))

(assert (=> b!12437 (= res!9720 (iqInv!0 (_2!322 lt!6487)))))

(declare-fun d!5147 () Bool)

(assert (=> d!5147 e!7062))

(declare-fun res!9722 () Bool)

(assert (=> d!5147 (=> (not res!9722) (not e!7062))))

(assert (=> d!5147 (= res!9722 (and (or (bvsgt #b00000000000000000000000000000000 (_2!321 lt!6530)) (= (bvand jz!59 #b10000000000000000000000000000000) #b00000000000000000000000000000000) (= (bvand jz!59 #b10000000000000000000000000000000) (bvand (bvsub jz!59 #b00000000000000000000000000000001) #b10000000000000000000000000000000))) (bvsle #b00000000000000000000000000000000 (_2!321 lt!6530)) (bvsle (_2!321 lt!6530) (bvsub jz!59 #b00000000000000000000000000000001))))))

(assert (=> d!5147 (= lt!6530 e!7061)))

(declare-fun c!1568 () Bool)

(assert (=> d!5147 (= c!1568 (bvslt lt!6535 (bvsub jz!59 #b00000000000000000000000000000001)))))

(assert (=> d!5147 (= lt!6535 (bvadd lt!6490 #b00000000000000000000000000000001))))

(declare-fun lt!6534 () (_ BitVec 32))

(assert (=> d!5147 (= lt!6529 (ite (and (= lt!6488 #b00000000000000000000000000000000) (not (= lt!6534 #b00000000000000000000000000000000))) #b00000000000000000000000000000001 lt!6488))))

(assert (=> d!5147 (= lt!6533 (array!917 (store (arr!402 (_2!322 lt!6487)) lt!6490 (ite (= lt!6488 #b00000000000000000000000000000000) (ite (not (= lt!6534 #b00000000000000000000000000000000)) (bvsub #b00000001000000000000000000000000 lt!6534) #b00000000000000000000000000000000) (bvsub #b00000000111111111111111111111111 lt!6534))) (size!402 (_2!322 lt!6487))))))

(assert (=> d!5147 (= lt!6534 (select (arr!402 (_2!322 lt!6487)) lt!6490))))

(assert (=> d!5147 e!7064))

(declare-fun res!9723 () Bool)

(assert (=> d!5147 (=> (not res!9723) (not e!7064))))

(assert (=> d!5147 (= res!9723 (and (bvsle #b00000000000000000000000000000000 lt!6490) (bvsle lt!6490 (bvsub jz!59 #b00000000000000000000000000000001))))))

(declare-fun lt!6531 () tuple4!286)

(assert (=> d!5147 (= lt!6531 e!7063)))

(declare-fun c!1567 () Bool)

(assert (=> d!5147 (= c!1567 (bvsgt jz!59 #b00000000000000000000000000000000))))

(assert (=> d!5147 (= lt!6536 (select (arr!401 q!93) jz!59))))

(assert (=> d!5147 (= lt!6532 (array!917 ((as const (Array (_ BitVec 32) (_ BitVec 32))) #b00000000000000000000000000000000) #b00000000000000000000000000010100))))

(assert (=> d!5147 (= (computeModuloWhile!3 jz!59 q!93 lt!6490 (_2!322 lt!6487) lt!6488) lt!6530)))

(declare-fun b!12430 () Bool)

(declare-fun res!9721 () Bool)

(assert (=> b!12430 (=> (not res!9721) (not e!7062))))

(declare-fun lt!6537 () (_ BitVec 32))

(assert (=> b!12430 (= res!9721 (bvsge (select (arr!402 (_3!258 lt!6530)) lt!6537) #b00000000100000000000000000000000))))

(assert (=> b!12430 (and (bvsge lt!6537 #b00000000000000000000000000000000) (bvslt lt!6537 (size!402 (_3!258 lt!6530))))))

(assert (=> b!12430 (= lt!6537 (bvsub jz!59 #b00000000000000000000000000000001))))

(assert (=> b!12430 (or (= (bvand jz!59 #b10000000000000000000000000000000) #b00000000000000000000000000000000) (= (bvand jz!59 #b10000000000000000000000000000000) (bvand (bvsub jz!59 #b00000000000000000000000000000001) #b10000000000000000000000000000000)))))

(declare-fun b!12438 () Bool)

(declare-fun res!9719 () Bool)

(assert (=> b!12438 (=> (not res!9719) (not e!7062))))

(assert (=> b!12438 (= res!9719 (iqInv!0 (_3!258 lt!6530)))))

(declare-fun b!12439 () Bool)

(assert (=> b!12439 (= e!7064 (and (bvsge (select (arr!402 (_2!322 lt!6487)) (bvsub jz!59 #b00000000000000000000000000000001)) #b00000000100000000000000000000000) (or (= lt!6488 #b00000000000000000000000000000000) (= lt!6488 #b00000000000000000000000000000001)) (bvslt lt!6490 (bvsub jz!59 #b00000000000000000000000000000001))))))

(assert (= (and d!5147 c!1567) b!12434))

(assert (= (and d!5147 (not c!1567)) b!12435))

(assert (= (and d!5147 res!9723) b!12437))

(assert (= (and b!12437 res!9720) b!12439))

(assert (= (and d!5147 c!1568) b!12432))

(assert (= (and d!5147 (not c!1568)) b!12436))

(assert (= (and d!5147 res!9722) b!12438))

(assert (= (and b!12438 res!9719) b!12430))

(assert (= (and b!12430 res!9721) b!12431))

(assert (= (and b!12431 res!9718) b!12433))

(declare-fun m!18429 () Bool)

(assert (=> b!12437 m!18429))

(assert (=> b!12439 m!18361))

(declare-fun m!18431 () Bool)

(assert (=> b!12432 m!18431))

(declare-fun m!18433 () Bool)

(assert (=> b!12438 m!18433))

(declare-fun m!18435 () Bool)

(assert (=> d!5147 m!18435))

(declare-fun m!18437 () Bool)

(assert (=> d!5147 m!18437))

(assert (=> d!5147 m!18373))

(declare-fun m!18439 () Bool)

(assert (=> b!12430 m!18439))

(declare-fun m!18441 () Bool)

(assert (=> b!12434 m!18441))

(assert (=> b!12373 d!5147))

(declare-fun d!5149 () Bool)

(assert (=> d!5149 (= (QInt!0 (select (arr!402 iq!194) (bvsub (bvsub jz!59 #b00000000000000000000000000000001) i!271))) (and (bvsle #b00000000000000000000000000000000 (select (arr!402 iq!194) (bvsub (bvsub jz!59 #b00000000000000000000000000000001) i!271))) (bvsle (select (arr!402 iq!194) (bvsub (bvsub jz!59 #b00000000000000000000000000000001) i!271)) #b00000000111111111111111111111111)))))

(assert (=> b!12378 d!5149))

(check-sat (not b!12399) (not b!12398) (not b!12409) (not b!12406) (not b!12434) (not b!12438) (not b!12432) (not b!12437) (not b!12402))
(check-sat)
